StudentsNr = 10;
InstructorsNr = 59;
DaysNr = 2;
SlotsPerDay = 15;
AvailabilitySlotsLenght = 15;
RoomNr = 2;
ProgrammNr = 2;
DegreeNr = 1;
RolesNr = 2;
CoursesNr = 4;
InstructorsProgramm = [{1}, {2}, {1}, {2}, {1, 2}, {2}, {1}, {1, 2}, {1}, {2}, {1}, {2}, {2}, {2}, {1, 2}, {2}, {1}, {2}, {2}, {1, 2}, {2}, {1, 2}, {2}, {1}, {2}, {1}, {1, 2}, {2}, {1, 2}, {2}, {1, 2}, {1}, {1, 2}, {2}, {2}, {1}, {1}, {1}, {2}, {1, 2}, {1, 2}, {2}, {1}, {2}, {2}, {1, 2}, {1, 2}, {2}, {2}, {2}, {1}, {1}, {1, 2}, {1}, {2}, {2}, {1}, {1, 2}, {1, 2}];
InstructorRolesPerProgramm = [|{1, 3, 15, 22, 26, 27, 32, 33, 37, 41, 43, 46, 47, 54}, {7, 22, 24, 26, 29, 32, 41, 43, 47, 52, 58, 59}|{4, 10, 12, 13, 15, 18, 19, 21, 22, 23, 25, 27, 33, 34, 41, 42, 45, 46, 47, 48, 49, 50, 55, 56}, {2, 12, 13, 18, 22, 28, 29, 41, 42, 44, 47, 55, 58, 59}|];
InstructorsAvailability = [|1, 1, |1, 1, |1, 1, |0, 0, |1, 1, |1, 1, |0, 1, |1, 1, |0, 1, |0, 0, |1, 1, |0, 1, |0, 0, |0, 1, |0, 1, |0, 1, |1, 1, |0, 0, |0, 1, |0, 0, |1, 1, |1, 1, |1, 1, |1, 1, |1, 1, |1, 1, |1, 1, |0, 0, |1, 1, |0, 1, |1, 0, |1, 1, |1, 1, |1, 1, |1, 0, |0, 1, |1, 0, |1, 1, |0, 0, |1, 1, |1, 0, |1, 1, |0, 1, |0, 1, |1, 1, |0, 1, |0, 0, |1, 1, |0, 1, |0, 0, |0, 1, |0, 1, |1, 1, |0, 1, |0, 1, |0, 0, |0, 1, |0, 0, |1, 1|];
StudentsProgramm = [1, 2, 1, 1, 2, 2, 2, 2, 2, 2];
StudentsDegree = [1, 1, 1, 1, 1, 1, 1, 1, 1, 1];
StudentsSupervisorId = [58, 12, 31, 38, 10, 5, 44, 2, 44, 58];
StudentsCourseIds = [{1, 3, 4}, {1, 2, 4}, {1, 2, 3}, {1, 2, 3}, {1, 2, 4}, {1, 2, 3}, {1, 2, 3}, {1, 2, 4}, {1, 2, 3}, {1, 3, 4}];
StudentsAvailability = [|0, 0, |0, 0, |0, 0, |0, 0, |1, 1, |0, 0, |1, 1, |1, 1, |1, 1, |1, 1|];
TheoryticalMinCard = [0, 0, 0, 0, 0, 0, 0, 0, 0, 0];
CoursesInstructorIds = [{1, 2, 3, 4, 5, 6, 7, 8, 9, 10, 12, 13, 14, 17, 19, 20, 23, 25, 35, 37, 42, 43, 44, 46, 47, 48, 49, 50, 57, 58}, {2, 4, 10, 12, 13, 15, 16, 24, 25, 28, 32, 33, 36, 37, 39, 40, 44, 45, 48, 50, 51, 52, 56, 58}, {1, 3, 5, 6, 7, 10, 12, 16, 20, 21, 23, 25, 28, 29, 31, 35, 36, 38, 40, 43, 45, 49, 50, 51, 56, 58}, {3, 15, 21, 23, 30, 36, 39, 45}];
RolesDemands = [3, 7];
RolesContinuity = [];
ExamLen = [2, 2, 2, 2, 2, 2, 2, 2, 2, 2];
LunchTsMinLen = 1;
LunchStarts = [4..8, 18..26];
SupervisorAvailable = 0;
OptimalLunchLenght = [0, 1];
OptimalStartTs = [0, 1];
OptimalFinishTs = [1, 14];
MinimizeRooms = 200;
RolesSoftContinuity = [|1, 2|4, 1|];
SameDegreeInRoom = 20;
Mergeability = 2;
